TCS_Benchmarks/redos_fix/corpus3_output_distinct_3184_3183_21_0.txt
([\-\.DdEe\d+]+)([\-\.DdEe\d+]+)
([\-\.DdEe\d+]+)(\s*([\-\.DdEe\d+]+)\s*)([\-\.DdEe\d+]+)